GLPSOL: GLPK LP/MIP Solver, v4.55
Parameter(s) specified in the command line:
 -m tmp.mod
Reading model section from tmp.mod...
Reading data section from tmp.mod...
11678 lines were read
Generating obj...
Generating kirhoff...
Generating init_charge...
Generating batt_size...
Model has been successfully generated
GLPK Simplex Optimizer, v4.55
12128 rows, 23834 columns, 53084 non-zeros
Preprocessing...
11188 rows, 23446 columns, 52256 non-zeros
Scaling...
 A: min|aij| =  1.000e+00  max|aij| =  1.000e+00  ratio =  1.000e+00
Problem data seem to be well scaled
Constructing initial basis...
Size of triangular part is 10337
      0: obj =   0.000000000e+00  infeas =  9.761e+03 (851)
    500: obj =   0.000000000e+00  infeas =  8.795e+03 (727)
   1000: obj =   0.000000000e+00  infeas =  7.161e+03 (617)
   1500: obj =   6.600000000e+01  infeas =  6.284e+03 (540)
   2000: obj =   1.190000000e+02  infeas =  4.977e+03 (479)
   2500: obj =   2.450000000e+02  infeas =  3.655e+03 (443)
   3000: obj =   4.080000000e+02  infeas =  2.580e+03 (393)
   3500: obj =   5.206428571e+02  infeas =  2.262e+03 (379)
   4000: obj =   6.501111111e+02  infeas =  1.909e+03 (369)
   4500: obj =   7.746000000e+02  infeas =  1.590e+03 (363)
   5000: obj =   9.250000000e+02  infeas =  1.200e+03 (353)
   5500: obj =   1.030666667e+03  infeas =  9.583e+02 (345)
   6000: obj =   1.210500000e+03  infeas =  2.240e+02 (333)
*  6251: obj =   1.266500000e+03  infeas =  2.554e-15 (327)
*  6500: obj =   1.177585714e+03  infeas =  1.771e-15 (326)
*  7000: obj =   1.004833333e+03  infeas =  3.109e-15 (319)
*  7500: obj =   9.093333333e+02  infeas =  1.911e-12 (306)
*  8000: obj =   7.720000000e+02  infeas =  3.414e-14 (301)
*  8500: obj =   6.380000000e+02  infeas =  0.000e+00 (297)
*  9000: obj =   5.230000000e+02  infeas =  0.000e+00 (289)
*  9500: obj =   4.010000000e+02  infeas =  0.000e+00 (287)
*  9882: obj =   3.060000000e+02  infeas =  0.000e+00 (275)
OPTIMAL LP SOLUTION FOUND
Time used:   10.5 secs
Memory used: 44.3 Mb (46419146 bytes)
#OUTPUT:
306
-6 23 2 -31 0 -16 -3 -2 -5 0 0 -88 5 -11 24 -7 -31 -7 0 5 9 0 -1 -7 -46 -42 1 -50 0 -7 0 2 3 0 0 3 0 0 0 0 11 -16 -40 0 4 0 0 -2 -31 -2 0 -44 0 -3 0 -3 -19 -12 0 -10 0 0 -5 0 -2 -4 0 0 0 0 -1 7 0 -6 0 0 6 -4 0 0 0 0 0 0 4 -16 0 0 -9 4 0 4 -7 -3 2 0 5 2 -42 0 0 0 41 0 -56 0 0 -16 -4 3 15 0 0 0 0 0 0 1 1 0 5 0 0 0 0 0 0 0 0 0 0 9 0 0 2 -2 0 0 14 8 0 0 0 9 0 0 -83 0 0 0 0 0 -39 0 0 0 -9 0 14 0 0 0 0 -2 0 -2 0 0 0 -66 0 -4 8 0 3 7 0 0 -7 0 0 0 -23 -2 0 1 0 -7 0 0 0 0 -5 0 -14 0 8 0 0 0 0 0 -1 0 1 0 0 0 0 5 0 2 -15 0 -5 0 0 0 0 0 0 -15 4 3 0 0 0 0 0 4 -10 0 0 9 0 1 0 17 -2 -1 0 0 0 0 0 0 0 6 0 0 0 0 0 0 -9 0 0 0 8 0 0 0 0 3 0 1 1 0 2 0 0 0 0 0 -41 0 0 0 0 0 0 0 0 0 0 0 0 0 10 0 -6 0 0 0 0 2 0 0 0 0 -15 6 0 0 0 -1 0 0 0 0 6 0 0 0 7 0 0 -6 0 5 0 1 0 -5 0 0 0 0 0 8 3 0 0 0 -83 0 0 0 0 0 6 0 0 0 0 0 0 0 0 -1 0 -3 0 -3 -1 0 0 -47 0 0 0 -5 0 0 0 0 2 0 0 0 0 0 0 0 2 1 0 0 6 0 0 0 0 0 0 8 0 0 0 0 -2 0 0 -4 0 0 0 0 0 0 0 2 0 -5 0 0 0 0 0 0 0 0 0 0 0 0 0 0 0 0 0 0 0 0 0 0 10 0 0 -1 0 0 4 0 3 10 0 5 0 0 5 -1 0 0 1 0 0 0 0 0 0 7 0 0 0 0 0 0 4 0 0 0 -2 0 0 0 0 31 0 0 0 -2 0 0 0 0 -2 -83 0 0 0 0 0 0 0 0 -5 0 9 0 3 0 7 0 0 7 0 0 0 0 -1 0 0 0 0 0 0 41 0 0 0 0 0 0 0 0 2 -22 0 0 0 0 -1 0 0 0 2 0 -95 0 -1 -11 0 -25 0 6 0 0 0 0 -7 -2 -33 -8 0 0 0 10 0 0 0 0 0 -6 -8 0 0 -32 7 0 15 -6 1 0 0 0 0 0 6 -4 -2 1 0 6 0 -6 -2 0 0 0 0 0 0 0 3 0 0 1 47 0 0 5 0 0 0 0 0 -1 0 -6 0 0 0 0 2 0 0 4 0 0 0 -2 5 0 0 0 0 0 1 -4 -3 0 0 -9 0 -5 1 0 -1 0 -7 0 0 0 -4 0 0 0 0 -31 0 2 0 2 0 0 -3 8 0 -9 8 -15 0 -7 1 0 0 -41 0 0 -2 5 17 0 -9 10 -3 3 0 -2 0 0 0 0 0 0 0 0 0 0 
11 19 0 -8 10 0 -3 -2 0 0 0 -4 -7 0 0 -7 -8 3 0 -7 0 -2 0 0 -73 0 0 -3 2 -7 0 0 0 -8 -2 0 0 0 0 0 5 -13 -2 0 -4 -1 0 0 -8 2 0 -2 -2 -1 0 -1 0 0 0 0 0 0 5 0 2 -1 0 0 0 -2 2 -3 0 -2 0 0 0 0 0 0 0 0 0 0 0 -13 0 0 0 2 -5 0 0 0 -2 0 -5 0 0 0 0 2 0 0 0 -2 0 -13 0 -3 0 0 0 0 0 0 2 0 0 0 -5 0 0 0 0 2 0 0 0 0 0 -4 0 0 0 0 3 0 0 8 0 0 10 0 0 0 0 0 0 0 0 0 0 0 0 0 0 0 0 0 0 0 0 0 0 0 0 1 0 0 0 0 0 0 0 -5 1 0 -4 0 0 0 0 0 0 0 0 2 0 0 0 0 2 0 0 0 0 0 0 2 -2 -2 0 0 0 0 0 0 0 0 0 0 -73 0 2 0 0 3 0 0 0 0 -8 0 0 0 0 0 0 4 0 0 0 0 0 0 0 0 -8 0 0 0 0 -1 0 0 0 0 0 0 0 0 0 0 -6 0 0 0 0 0 0 0 0 0 0 0 4 0 0 0 0 0 0 0 2 0 0 0 0 -1 0 0 0 0 0 0 -3 1 0 0 -3 0 0 0 0 0 0 0 0 -2 0 0 0 0 0 0 0 0 0 0 0 2 -2 0 0 0 0 0 0 0 0 -3 0 0 0 -2 0 0 0 0 0 0 0 0 0 0 0 -1 -1 0 0 -2 0 0 0 0 -3 0 0 0 0 -2 0 0 0 0 0 0 0 0 0 5 0 0 0 0 2 0 -1 0 0 0 0 0 0 4 0 0 7 0 0 0 0 0 0 0 0 -73 0 0 0 0 0 4 0 -2 0 0 0 0 0 0 0 0 0 0 0 0 0 0 -69 0 -1 2 0 0 0 0 0 0 0 0 -1 0 0 0 10 0 0 -1 0 0 0 0 0 10 0 0 0 0 -5 0 0 0 0 0 0 0 0 0 0 0 0 0 0 0 -8 0 6 0 0 0 0 0 0 0 0 0 0 0 0 0 0 0 0 0 0 0 0 0 2 0 0 0 0 0 0 -2 0 0 0 0 -2 0 0 0 0 0 0 0 0 1 0 0 0 0 0 0 0 0 0 0 0 0 0 0 0 0 0 0 0 0 -4 0 0 0 0 0 -95 0 0 0 -6 -18 0 -6 0 -6 0 0 5 -1 0 0 2 2 0 0 0 2 0 0 0 0 0 -2 -1 0 0 0 0 1 0 0 0 0 2 0 0 0 0 0 0 0 0 6 -6 0 1 0 0 2 1 0 2 0 0 0 0 2 0 -5 0 0 -2 0 0 -4 0 -7 0 0 0 2 0 0 0 -4 2 0 0 0 0 0 -2 0 1 -2 1 0 0 0 0 -6 0 5 0 0 0 0 0 0 0 8 -6 0 0 1 -1 0 0 0 0 0 -2 0 0 0 2 0 2 0 0 0 0 -1 0 0 0 0 0 0 0 0 -6 10 0 0 0 0 0 0 0 0 0 0 0 0 0 0 
0 16 -16 0 -11 -46 0 0 -5 0 0 -5 0 0 0 -5 0 0 0 0 0 0 0 0 -4 0 2 -3 0 -5 0 -38 -2 0 0 -2 0 -33 0 0 0 0 -2 0 0 0 0 0 0 0 0 0 0 0 0 0 2 0 -4 0 0 0 0 0 0 0 0 0 0 0 0 0 0 0 0 0 0 0 0 0 0 0 0 0 0 0 0 0 0 0 0 5 0 0 0 0 0 0 0 0 0 0 0 0 0 0 0 0 0 0 0 0 0 0 0 0 0 0 5 0 0 0 0 0 0 0 0 0 0 0 0 0 0 0 0 0 0 0 0 0 0 0 22 0 0 0 0 0 0 0 0 0 0 0 0 0 0 0 0 0 0 0 0 0 0 0 0 0 0 0 0 0 2 0 0 0 0 0 -10 0 0 0 0 0 0 0 0 -2 0 0 0 0 0 0 0 0 2 0 0 0 0 0 0 0 0 0 0 0 0 0 0 0 -4 0 0 0 0 0 0 0 0 0 0 0 0 0 0 0 0 0 0 0 0 0 0 0 0 0 0 0 0 0 0 0 0 0 0 0 0 0 0 0 0 0 -10 0 0 0 0 0 0 0 0 0 0 0 0 0 0 0 0 0 0 0 -2 0 0 0 0 0 0 0 0 0 0 0 0 0 0 0 0 0 0 0 0 0 0 0 0 0 0 0 0 0 0 0 0 0 0 0 0 0 0 0 0 0 0 0 0 0 0 0 0 2 0 0 0 0 0 2 0 0 0 0 0 0 0 0 0 0 0 0 0 0 -42 0 0 4 0 0 0 0 0 0 0 0 0 0 0 0 0 0 0 0 0 0 0 0 0 0 0 0 0 0 0 0 0 0 0 0 0 0 0 0 0 0 0 0 0 0 0 0 0 0 0 3 0 0 0 0 0 0 0 2 0 0 0 0 0 0 0 0 0 0 0 0 0 0 0 0 0 0 0 0 0 0 10 2 2 0 0 0 0 0 0 10 0 0 0 0 0 0 0 0 0 0 0 0 0 0 0 0 0 0 0 0 0 0 0 0 0 0 0 0 0 0 0 0 0 0 0 0 0 0 0 0 0 0 0 0 0 0 0 0 0 0 0 2 0 0 0 0 0 0 0 0 0 0 0 0 0 0 3 0 0 0 0 0 0 0 0 0 0 4 0 0 0 0 0 0 0 0 0 0 0 0 0 0 -66 -38 -5 0 0 -22 0 0 0 0 0 0 0 0 -3 0 0 0 0 0 0 0 0 0 0 0 0 2 0 0 0 0 0 0 0 0 0 -2 2 0 0 0 0 0 0 0 0 -2 0 0 0 0 0 0 0 0 0 0 0 0 0 0 0 0 0 0 0 0 0 0 0 0 0 0 0 0 0 0 0 0 0 0 0 0 -2 0 0 0 0 0 0 0 0 0 0 0 0 0 0 0 0 0 0 0 0 0 0 0 0 0 0 0 0 0 0 0 0 0 0 0 -2 0 0 -4 0 0 0 0 -3 0 0 -4 0 0 0 0 -10 10 0 0 0 0 0 0 0 0 0 0 0 0 0 0 
-10 0 -10 0 0 0 0 0 -5 0 0 0 0 0 0 -5 0 0 0 0 0 0 0 -3 -47 0 0 0 5 -5 0 0 0 0 0 -39 0 0 0 0 0 0 0 0 0 0 0 2 0 0 0 7 0 0 0 0 0 0 0 0 0 0 0 0 0 0 0 0 0 0 0 0 0 0 0 0 0 0 0 0 0 0 0 0 0 0 0 0 0 0 0 0 0 -3 0 0 0 0 0 0 2 0 0 5 0 0 0 0 0 0 0 0 0 0 0 0 0 0 0 0 0 0 0 0 0 0 0 0 0 0 0 0 0 0 0 2 0 0 0 0 5 0 0 0 -5 0 0 0 0 0 0 0 0 -5 0 0 0 0 0 0 0 0 0 3 0 0 0 0 0 0 0 0 0 0 0 0 0 0 0 0 0 0 0 0 0 0 0 0 0 0 0 0 0 0 0 0 0 0 0 0 0 0 0 0 0 0 0 0 0 0 0 0 -47 0 0 0 0 0 0 0 0 0 0 3 0 0 0 0 0 0 0 0 0 0 0 -5 0 0 0 0 0 0 0 0 0 0 0 0 0 0 0 0 0 0 0 0 0 0 0 0 0 0 0 0 0 0 0 0 0 0 0 0 0 0 0 0 0 0 0 0 0 0 0 0 0 0 0 0 0 0 0 0 0 0 0 0 0 0 0 0 0 0 0 0 0 0 0 0 0 0 0 0 0 0 0 0 0 0 0 0 0 3 0 0 0 0 0 0 0 0 0 0 0 0 0 0 0 0 0 0 0 0 0 0 0 0 0 0 0 0 -1 -3 0 0 0 0 0 0 0 0 -5 0 0 0 0 0 0 0 0 0 0 0 0 0 0 0 0 0 0 0 0 0 0 0 0 0 0 -39 0 0 0 0 0 0 0 0 0 0 0 0 0 0 0 0 0 0 0 0 0 0 0 0 0 0 0 0 0 0 0 0 0 0 0 0 0 0 0 0 0 0 0 0 0 0 0 0 0 0 0 0 0 0 0 0 0 0 0 0 0 0 0 0 0 0 0 0 0 0 0 0 0 0 0 0 0 0 0 0 0 0 0 0 0 0 0 0 0 0 0 0 39 0 0 0 0 0 0 0 0 0 0 0 8 0 0 0 0 0 0 0 0 0 0 0 0 0 0 0 0 0 0 0 0 0 0 0 2 0 0 0 0 0 0 0 0 0 0 0 -50 0 0 0 0 0 5 0 5 0 0 0 0 0 0 0 0 0 0 0 0 0 0 2 -2 0 0 0 0 0 3 0 0 0 0 -5 0 -42 42 0 0 0 0 0 0 5 0 0 0 0 0 0 0 0 0 1 3 0 0 0 0 0 5 0 0 0 0 0 0 0 0 0 0 0 0 0 0 0 0 0 0 0 0 0 0 0 0 0 0 0 0 0 0 0 0 0 0 0 0 0 0 0 0 0 0 0 0 0 0 0 0 0 0 0 0 0 -39 0 0 0 0 0 0 -8 0 0 0 0 0 0 0 0 -2 0 0 0 0 0 0 0 0 0 0 0 0 0 0 0 0 0 0 0 
0 4 -4 0 0 0 -3 0 -2 1 10 2 10 0 10 0 0 0 0 -7 0 -2 3 -2 -84 0 -2 0 -2 -5 0 -4 -4 0 -2 -58 0 -32 0 0 -9 0 0 0 0 0 0 0 0 0 0 13 0 0 0 0 0 0 0 0 0 0 0 0 0 0 0 0 0 -2 0 10 0 -6 0 0 0 13 0 0 0 -2 0 0 0 0 0 0 -6 4 0 -10 0 0 0 0 -5 0 0 0 0 0 0 0 -6 -2 -2 0 0 -1 0 0 0 0 0 0 -2 0 0 0 -2 0 0 0 0 -2 0 -1 0 0 0 4 6 0 0 2 0 0 -1 -8 2 6 22 0 0 0 0 0 0 0 0 0 0 0 0 0 0 0 -1 0 0 0 0 2 -6 0 0 0 0 0 6 17 2 0 -3 0 0 0 0 4 0 6 0 0 0 1 0 0 0 -6 0 0 0 0 0 0 2 0 0 0 2 -2 3 0 0 -2 0 0 0 -5 0 0 -84 4 0 0 0 0 0 0 0 0 -9 0 0 0 0 0 0 0 0 0 -2 0 0 0 2 0 6 0 0 0 0 0 -8 0 0 -6 0 0 0 -2 0 0 0 0 0 0 0 0 0 0 0 0 0 0 0 0 0 0 0 0 0 0 0 0 0 4 0 0 0 0 0 0 0 -2 0 0 0 0 0 0 -3 0 0 0 -2 0 0 0 0 4 0 0 0 3 0 0 0 0 0 0 -2 0 0 0 0 -6 0 0 0 0 0 0 0 0 0 4 0 -6 0 0 0 0 0 0 0 0 0 0 0 0 0 0 -35 0 0 0 0 0 0 0 10 0 0 0 0 0 0 0 0 0 0 0 0 0 0 0 0 0 0 0 0 2 0 -1 0 0 0 0 0 0 0 0 0 0 0 -52 0 0 -2 0 0 0 0 0 0 0 0 0 -1 0 0 0 0 0 0 0 0 0 0 0 0 0 1 0 0 0 0 0 0 0 0 0 0 0 2 2 2 0 0 0 0 0 0 2 0 0 -8 0 4 0 0 0 -1 0 0 0 0 0 0 0 -35 0 0 0 -6 0 0 0 0 -1 0 0 0 0 0 0 0 0 6 0 0 -2 0 0 0 0 0 0 52 0 0 0 0 0 0 2 0 0 8 -51 6 0 0 0 0 0 0 0 0 0 0 0 0 0 0 0 0 0 0 0 0 0 0 0 0 5 0 0 0 0 -2 0 0 0 0 0 -93 -35 0 0 0 -16 0 0 0 0 0 0 0 -2 0 0 -2 0 0 0 -2 0 0 0 0 6 2 0 0 13 0 3 0 -4 -3 0 0 2 0 6 0 0 0 0 -2 6 -4 0 6 0 0 6 -6 0 0 0 0 0 -9 0 0 0 0 0 -1 0 0 0 -2 0 0 0 0 0 0 0 2 0 0 0 0 0 1 0 0 0 0 -1 0 0 0 0 0 0 0 0 8 -4 -3 3 1 0 0 0 0 0 0 1 0 0 0 0 -6 0 2 0 -52 0 0 0 -2 0 26 -32 0 0 0 0 0 0 0 0 0 -5 0 0 0 2 -8 8 0 0 0 0 0 0 0 0 0 0 0 0 
0 0 0 0 1 -46 -2 8 0 -10 0 -4 2 12 9 7 0 -10 0 0 0 -3 0 -4 -17 0 0 0 0 9 0 0 0 2 0 0 0 0 0 -3 0 0 0 0 0 0 0 0 0 0 0 -10 2 0 0 0 0 0 -3 0 0 0 -5 0 0 -12 0 0 0 0 0 10 0 1 0 0 0 -3 0 0 0 0 0 0 10 0 0 0 1 -4 -2 0 -5 0 0 0 0 2 0 0 9 -8 0 2 1 0 0 0 -1 0 0 0 6 0 0 0 -2 0 0 0 0 0 0 0 0 0 0 1 0 0 2 -7 -6 0 0 2 4 0 0 0 -7 0 1 0 0 0 0 0 0 4 0 0 0 0 0 0 0 0 0 0 0 0 0 6 0 -2 0 0 0 0 -6 0 0 0 -3 7 -5 0 0 0 0 -6 0 -2 0 0 0 0 0 0 0 0 0 0 0 0 0 0 0 -8 0 0 0 0 0 -2 0 0 0 -5 0 2 -5 0 0 0 0 4 0 0 0 0 0 0 0 0 0 0 0 -4 0 0 0 0 0 0 0 0 0 -3 0 -6 0 0 -8 0 0 -6 0 -23 0 0 0 0 0 0 0 0 0 0 0 0 0 -3 0 0 -1 0 0 0 0 0 0 0 0 0 0 0 0 4 0 0 0 0 0 0 0 19 -10 0 0 0 -3 0 0 2 0 4 0 0 0 0 0 0 0 0 0 0 0 0 9 0 0 0 0 0 0 -6 0 -1 0 0 0 0 0 0 5 3 0 0 -3 0 0 0 0 0 0 2 0 0 0 8 0 0 0 0 0 0 0 0 1 -4 0 3 0 0 0 0 0 5 -6 0 0 0 0 -26 0 0 0 0 0 0 0 6 2 0 0 -5 -7 0 0 0 0 0 0 0 0 -5 0 0 -5 0 23 0 0 0 0 0 0 0 0 2 0 0 0 0 0 0 0 0 0 0 0 0 -1 0 0 0 0 0 0 0 0 0 0 0 1 0 0 0 0 0 1 0 -3 1 0 0 -8 0 0 -3 0 0 0 0 0 0 0 0 0 0 0 0 0 0 2 0 0 0 0 0 0 0 0 0 0 12 0 0 6 0 0 0 0 0 0 0 0 0 0 0 0 0 0 0 0 0 0 0 0 0 -9 0 0 0 0 0 0 0 0 0 0 0 0 0 0 0 0 0 0 0 0 0 0 0 0 5 0 0 0 0 -1 0 0 0 0 0 -92 3 0 0 0 -1 4 0 0 0 0 0 -7 0 0 0 0 0 -28 0 0 0 0 9 -3 6 6 0 4 -33 0 3 0 0 0 -4 -2 0 0 -3 9 -5 0 0 0 -9 -3 0 0 0 -2 0 0 -8 0 -1 0 4 0 0 0 0 6 0 1 26 0 0 -6 0 5 1 6 0 0 5 5 0 -23 0 0 0 0 -2 0 0 0 1 0 0 0 -1 3 -2 2 0 8 0 0 3 0 0 -5 5 0 -8 0 0 -4 4 0 -12 -6 0 0 0 0 0 0 0 0 0 9 0 0 0 0 0 0 0 0 0 0 -5 0 0 0 1 0 0 0 0 0 0 0 0 0 0 0 0 0 0 
-95 -44 -8 -31 -16 0 0 0 5 4 0 -2 0 0 18 7 -31 -7 4 -4 0 3 0 -7 -39 0 -3 0 0 8 0 0 0 0 -2 3 0 -16 0 3 1 -7 0 4 -4 0 0 -3 -31 0 0 -18 0 0 0 0 0 -12 0 -12 0 0 0 0 0 0 0 0 0 0 0 7 0 6 -2 0 -10 -16 0 0 0 0 0 0 0 -7 0 0 8 0 -1 0 -5 0 -2 0 -2 0 0 0 0 0 0 0 8 0 0 0 0 3 0 1 0 0 0 0 0 0 5 0 -2 4 0 0 0 0 0 -1 0 0 0 8 0 0 0 -1 1 0 0 -2 0 0 0 0 0 0 0 0 0 0 0 0 -39 0 0 0 0 0 0 0 -3 0 0 0 0 0 0 -1 0 0 0 -26 5 0 2 0 -26 0 -4 0 0 0 -5 0 0 0 0 -1 0 0 0 0 0 2 0 0 5 0 -3 0 0 0 0 0 0 -2 0 0 0 0 0 0 -32 0 0 0 0 1 0 0 0 0 8 3 0 0 1 0 0 -3 -12 2 0 0 0 -6 0 0 0 0 0 0 0 0 6 0 0 0 0 0 0 0 0 0 -4 0 0 0 -6 0 0 0 0 0 0 0 -3 0 1 0 0 0 0 0 -2 0 0 0 0 1 0 0 0 0 0 0 0 -1 0 0 0 0 0 0 0 0 0 0 0 0 0 -1 0 0 0 0 0 -12 0 0 0 0 0 0 0 0 0 0 0 0 0 0 0 0 0 0 -2 -6 0 0 0 0 0 0 0 0 0 2 0 0 10 0 0 0 0 0 0 3 0 0 1 -3 14 0 0 0 0 0 0 -2 0 0 0 0 0 0 0 0 0 0 0 0 0 -6 0 -4 0 -5 -2 0 0 0 0 0 -7 0 0 0 0 0 -28 0 0 4 0 0 0 0 0 0 -5 0 0 0 0 0 0 0 0 0 0 0 0 0 1 0 0 0 0 0 0 0 1 0 0 0 8 0 0 1 0 0 0 0 0 8 0 5 6 0 0 5 0 0 0 0 0 0 0 0 0 0 0 0 0 -1 8 0 -6 0 0 0 0 0 0 0 0 0 0 0 -8 0 0 -2 7 0 -1 0 0 0 -3 0 0 0 0 0 0 2 0 0 0 0 9 0 7 0 0 0 0 0 -5 0 0 0 0 0 0 0 0 0 0 0 0 3 0 0 0 0 0 0 0 0 -4 4 0 0 0 0 -2 0 -5 0 0 -5 0 -6 0 1 0 0 0 -2 0 -5 0 0 0 12 0 0 5 0 0 0 0 2 1 -6 0 0 0 3 0 0 0 9 -9 0 0 0 4 0 0 -5 6 0 0 0 -2 0 0 0 2 -1 3 0 -9 0 0 5 0 0 -1 0 0 2 4 -1 5 2 0 0 0 3 -54 0 0 -4 0 0 5 0 0 0 0 -1 -1 2 -1 0 0 0 0 1 -6 0 -5 0 0 0 -5 5 1 0 6 0 -2 1 1 0 8 0 2 1 3 0 0 0 -2 0 20 -32 -7 0 5 0 0 0 0 -3 0 0 0 0 -4 8 -4 0 0 0 0 0 0 0 0 0 0 0 0 0 
-61 0 -30 -31 -25 -42 -3 -9 -5 -12 0 -53 -3 0 18 2 -31 0 -3 -1 0 0 0 0 -15 0 0 -33 0 -2 0 0 0 0 0 -2 0 11 0 0 -2 -16 -10 -3 0 0 -40 0 -31 0 0 0 0 0 0 0 -14 0 -4 0 0 0 0 0 0 0 0 0 0 0 -7 0 0 -4 0 0 4 -2 0 0 0 0 0 0 0 -27 0 0 -9 -5 0 9 -5 0 2 0 -1 0 0 11 0 0 0 0 -56 0 0 -27 0 0 0 -3 0 0 0 0 0 3 5 0 -2 0 0 11 0 -2 0 -2 0 0 0 0 0 0 0 0 0 0 0 -2 -10 0 4 0 1 0 0 0 0 1 0 0 -39 0 0 0 0 0 0 0 0 0 0 0 0 0 0 1 0 -94 0 0 0 0 3 0 0 0 -10 0 0 0 -4 0 0 -1 0 0 0 0 0 0 0 0 -14 0 0 0 0 0 2 0 0 0 0 0 0 0 0 0 0 0 -15 0 0 0 0 0 0 0 0 0 9 3 0 0 0 0 0 0 0 0 0 0 0 0 0 0 0 0 0 0 0 0 0 0 0 3 0 0 0 0 0 0 -10 0 0 0 0 0 0 0 0 0 0 0 0 0 0 0 0 0 0 0 -2 0 0 0 0 0 0 0 0 0 0 0 3 0 0 0 0 0 0 0 0 0 0 0 0 0 0 4 0 0 0 0 0 0 -5 0 0 0 0 0 0 0 0 -6 0 0 0 0 0 0 0 0 3 2 0 0 0 0 0 0 0 0 0 0 0 0 0 0 0 0 0 0 3 4 0 0 0 -3 0 0 0 0 0 -47 0 3 0 0 1 0 0 0 0 0 0 0 0 0 0 0 0 -1 0 -5 0 0 0 0 0 -56 0 0 0 0 0 0 0 0 0 0 0 0 0 0 0 0 -1 0 0 0 0 0 0 0 0 4 0 0 0 0 1 0 0 0 0 0 0 0 -1 0 0 0 10 -4 -4 0 0 0 1 0 0 10 0 0 0 0 0 0 0 0 0 0 0 0 0 0 0 0 0 0 0 0 8 0 0 0 0 1 0 0 0 0 0 0 0 0 0 0 0 -2 0 0 0 0 0 0 0 0 0 0 0 0 0 2 0 0 0 0 -9 0 0 -15 0 0 0 0 -4 0 0 0 0 0 0 0 0 0 0 0 0 0 0 0 6 0 0 0 0 0 0 0 1 0 3 0 -60 4 -5 0 0 -8 0 2 0 0 0 0 0 0 -33 -4 -2 0 -6 0 0 0 0 0 0 -3 0 2 0 0 0 0 0 -1 0 11 -6 -6 6 6 0 0 -3 3 0 -9 -2 0 0 0 0 0 0 0 3 0 3 0 1 0 47 -3 0 0 -2 0 0 0 0 0 5 0 0 0 0 0 0 0 0 0 0 0 1 0 0 -4 0 -1 1 6 0 0 0 0 0 0 0 0 0 0 0 0 -5 5 0 -8 0 -1 0 0 0 0 0 0 2 0 0 0 0 0 -2 0 24 -15 0 15 4 0 0 0 0 0 -6 0 0 0 -10 10 0 0 -1 -3 0 0 0 0 0 0 0 0 0 0 
0 0 0 0 3 -29 -3 0 0 0 -19 -15 -12 12 9 0 0 -10 0 7 0 0 0 -2 -61 0 0 -2 0 0 0 -27 -17 -5 2 0 0 0 0 0 0 -16 -6 0 -2 0 0 0 0 -2 0 -30 0 -1 0 -1 0 9 4 9 0 0 -5 0 -2 -3 0 0 0 2 0 -9 0 2 0 0 -5 4 0 0 0 0 0 0 0 -16 0 0 0 -6 0 0 -2 3 2 0 5 0 0 0 0 0 0 0 0 0 0 -21 0 0 0 2 6 0 0 0 0 0 0 0 0 0 0 0 0 0 0 0 0 0 0 -9 0 0 0 0 0 0 10 0 0 0 22 0 0 0 0 0 0 0 0 0 8 0 0 0 9 0 10 0 0 0 0 0 0 0 0 0 0 0 0 0 10 0 0 5 -5 0 -2 0 0 0 -10 0 0 -5 0 0 0 0 0 0 0 2 0 0 10 0 0 0 0 2 0 0 0 0 0 0 0 -5 0 0 -49 0 0 0 0 0 0 0 0 0 -3 0 0 0 0 0 0 0 9 2 0 -9 0 0 0 49 0 0 0 0 0 0 0 0 0 1 0 0 0 0 0 0 0 0 0 0 0 0 0 0 0 0 0 0 0 0 0 0 0 0 0 0 -2 0 0 0 0 0 0 0 0 0 0 0 0 0 -5 0 -2 0 -5 0 0 0 0 0 0 2 0 0 -66 0 0 0 0 0 -1 0 0 0 0 0 2 0 0 0 0 0 0 -2 0 0 0 2 0 -4 0 -5 0 0 0 0 0 0 0 -2 0 0 0 0 0 0 0 0 0 -4 0 0 0 0 0 0 0 0 0 0 0 0 0 0 0 0 0 0 -2 0 0 0 0 0 0 0 0 0 0 0 1 0 0 0 0 0 5 8 0 -49 0 0 -5 -1 0 2 0 0 0 0 0 0 0 0 -66 0 0 0 0 0 0 -4 0 0 0 0 0 0 0 0 0 0 0 0 0 0 0 0 0 0 0 -1 0 0 0 0 0 0 0 -4 0 0 0 0 0 0 0 0 0 0 0 0 0 2 0 0 0 0 2 0 -3 0 0 5 0 0 0 0 0 12 0 0 0 0 0 0 -5 0 0 0 0 0 -17 0 0 0 0 0 -5 0 0 0 0 0 0 0 -5 0 0 0 0 0 0 0 0 0 0 0 0 0 0 0 0 0 0 0 0 0 0 -44 0 0 0 0 0 0 0 0 -2 0 -95 -4 0 0 -5 -32 0 0 0 -2 0 0 -5 0 0 -10 0 0 0 -9 0 5 0 0 0 -1 0 2 0 -39 0 5 0 0 0 1 0 0 0 0 0 -1 -1 0 0 2 4 0 5 0 2 0 0 0 0 0 0 0 0 0 0 0 0 0 0 0 2 2 -2 0 0 -7 6 0 0 0 5 1 0 -2 0 0 0 0 0 4 0 0 0 0 1 0 0 0 0 7 0 0 0 0 0 0 -2 0 0 -2 3 -5 0 0 0 -12 0 0 0 0 17 0 -3 8 0 0 0 0 5 0 0 0 0 0 0 0 0 -5 49 0 0 0 0 0 0 2 0 0 0 0 0 0 0 0 0 0 
-47 0 -47 0 -25 -43 -3 -4 0 0 0 -6 -15 11 23 -1 0 0 0 7 0 -3 0 -6 -23 0 0 0 0 0 0 -39 17 -12 2 8 0 1 0 -1 0 0 0 0 0 0 -47 -2 0 0 0 -2 0 1 0 1 0 0 -1 0 0 0 0 0 0 3 0 0 0 2 0 0 0 3 0 0 0 0 0 0 0 0 0 0 0 0 0 0 0 -6 0 0 7 0 0 0 5 0 0 0 0 0 0 0 0 -2 0 0 0 0 0 6 0 0 0 0 0 3 -5 0 0 0 0 0 1 -2 0 -1 0 0 0 0 0 0 1 -2 0 0 0 8 0 0 21 0 0 0 0 0 0 0 0 0 6 0 0 0 0 0 0 0 0 0 0 0 1 0 0 0 0 0 0 -3 0 1 3 0 0 0 -4 0 0 0 0 0 0 -5 0 0 0 1 0 0 0 -2 0 0 0 0 0 0 2 2 0 0 0 0 0 0 0 0 0 0 -12 0 0 0 0 0 0 0 0 0 0 2 -2 0 0 0 0 0 0 -2 0 0 0 3 0 0 0 0 0 1 0 0 0 0 0 6 0 0 0 0 0 0 0 0 0 0 0 1 0 0 0 0 0 0 0 0 0 -88 0 0 0 0 0 0 0 0 0 0 0 0 0 0 0 0 -3 0 2 0 1 0 0 0 0 0 0 0 0 2 0 3 0 0 0 0 0 0 0 0 0 -2 -2 0 -7 0 0 0 0 0 0 1 0 0 0 2 -5 -3 0 -4 0 0 0 0 0 0 0 0 1 0 0 0 0 0 0 0 -3 0 0 0 1 0 0 0 0 0 0 0 0 -5 0 0 1 0 0 0 -2 0 0 0 0 0 0 0 0 0 0 0 0 0 0 0 0 0 0 1 0 -2 0 0 0 0 0 0 0 0 0 0 0 0 -4 0 0 0 0 0 0 0 0 0 0 0 0 -2 0 0 0 0 0 0 0 0 0 0 0 0 0 0 0 1 0 0 0 0 0 0 0 0 0 0 0 0 0 0 0 0 0 0 0 0 0 -7 0 0 0 0 0 0 0 0 0 5 0 0 0 0 0 11 0 0 0 0 0 0 0 0 0 0 0 0 7 0 0 0 0 0 0 0 0 0 -1 0 0 0 0 0 0 0 0 0 0 -1 0 0 0 0 0 0 0 0 0 0 0 0 0 0 0 0 0 0 0 0 0 0 0 0 -6 0 -75 1 5 -1 -12 -21 0 0 0 0 0 0 0 0 0 0 -2 0 0 0 0 0 0 0 -1 -6 0 0 0 -2 0 0 0 0 0 0 0 2 0 0 0 0 -1 3 0 0 3 4 0 0 0 -1 1 0 3 -1 0 0 4 0 0 0 0 0 -1 0 2 -2 2 -4 0 0 0 0 0 -5 0 0 0 0 0 0 4 0 0 0 2 0 0 0 -1 0 0 0 0 0 0 0 0 0 0 0 7 0 0 0 0 -5 0 0 0 -11 0 0 0 0 -7 0 -1 1 0 0 10 -10 0 0 0 1 0 0 0 0 0 0 0 0 0 0 1 -1 0 6 0 0 0 0 0 0 0 0 0 0 
0 0 0 0 0 -33 0 0 0 -12 0 -12 -1 0 -24 0 0 0 -4 4 0 0 0 -7 -15 0 -3 -2 2 0 0 -17 -17 0 4 0 0 -6 0 0 3 16 -7 -4 0 -4 0 -3 0 0 0 -5 0 -2 0 -2 0 0 4 0 0 0 0 0 0 -3 -1 0 0 3 -1 0 0 0 1 -1 -10 -1 0 0 0 0 0 0 0 16 0 0 0 0 0 -1 5 3 0 0 0 0 0 0 0 0 0 0 0 0 0 15 0 3 1 -82 0 0 0 0 2 0 0 0 0 0 0 0 0 0 0 0 0 0 0 0 0 0 0 -2 0 0 4 0 -2 0 6 0 0 0 0 0 0 0 0 0 8 0 0 0 -1 0 4 0 0 0 0 -2 0 0 0 0 0 0 0 -1 -1 0 3 0 0 0 -2 0 0 0 0 0 0 -8 0 -1 0 0 0 0 -3 0 0 0 -1 0 0 0 0 3 0 -1 0 0 0 0 0 5 0 0 -15 0 -3 0 0 0 0 0 0 -1 0 5 0 0 0 0 0 0 0 0 1 0 0 0 0 0 0 -5 0 0 0 -1 0 0 0 0 0 0 0 -8 0 0 0 0 0 0 0 0 0 -84 0 0 0 0 0 0 2 0 0 0 0 0 0 0 0 0 0 0 0 0 0 0 0 1 -3 0 0 0 -1 0 0 0 0 0 8 0 0 2 -1 -1 0 0 0 0 0 0 -1 0 0 -2 0 0 0 -1 0 0 0 0 0 -3 0 0 0 2 0 0 0 0 0 0 0 0 0 0 0 0 0 0 -5 0 0 0 0 3 -3 -4 0 0 0 -3 -6 0 0 0 0 0 0 0 0 0 0 0 0 0 -2 0 -1 0 0 0 0 0 0 0 0 5 7 0 0 0 -3 0 1 0 0 15 0 0 -2 -1 0 0 0 0 0 0 0 0 0 0 0 0 0 0 0 0 0 8 0 0 -1 -2 0 0 0 0 -84 0 0 0 0 0 0 0 0 0 0 0 0 0 0 -84 0 0 -1 0 0 0 0 -5 0 0 -1 0 0 0 0 0 0 0 0 0 0 0 0 0 1 0 0 8 0 1 0 0 0 0 0 0 0 0 0 0 -1 0 -2 0 0 0 -17 0 0 0 0 0 -3 0 0 0 0 0 -9 0 -1 0 0 0 0 0 -3 0 1 0 0 0 0 0 0 0 0 0 0 -12 0 0 -2 -5 0 0 0 0 0 0 0 0 0 0 -55 -4 0 0 0 -6 0 0 0 0 0 0 0 -2 -1 1 0 -2 0 0 0 0 0 0 0 0 0 0 0 -5 -2 0 1 4 0 1 0 6 -6 0 0 0 -5 0 5 -6 0 0 0 0 0 0 0 0 3 0 3 0 -11 0 0 2 0 0 0 0 2 0 0 0 -5 -7 0 0 3 2 2 1 0 0 1 0 0 0 0 -8 2 0 0 0 0 0 0 1 0 -1 0 0 5 0 1 0 5 -5 0 0 -1 -8 1 -1 -1 0 0 0 0 2 17 0 3 0 0 0 51 -30 1 0 3 0 -1 0 0 12 2 5 0 0 0 0 0 0 0 0 0 0 0 0 0 0 0 0 0 0 
0 0 0 0 0 -20 -3 -3 0 0 -8 -41 3 0 8 0 0 1 0 0 0 0 0 -6 -31 -31 -2 0 0 0 0 -17 0 0 0 0 0 -7 0 0 0 0 -39 0 0 4 0 -2 0 0 0 -15 0 0 0 0 0 -12 0 -12 0 0 0 0 0 0 0 0 0 0 -4 -9 0 0 0 0 -1 -7 0 0 0 0 0 0 0 0 0 0 0 0 0 0 -5 -3 0 0 0 0 -31 0 -3 0 42 0 0 0 0 0 0 0 0 4 0 0 0 0 0 0 0 0 0 0 0 0 0 0 0 0 0 0 0 -9 6 0 0 -2 0 0 0 0 0 0 15 0 0 0 -73 0 0 0 5 0 4 0 0 0 1 0 0 0 -4 0 0 0 0 0 0 0 0 0 6 -7 5 0 0 0 0 0 -3 0 0 6 -5 0 0 -4 0 0 0 0 0 0 0 0 0 0 5 0 -4 0 0 0 0 0 0 0 0 0 0 0 0 0 0 0 0 0 0 0 0 0 0 0 0 0 0 0 0 0 0 0 -12 0 0 -1 0 -3 0 0 0 0 0 6 0 0 0 0 0 0 0 0 0 -4 0 0 -3 0 0 0 0 0 0 0 0 0 0 0 0 5 0 0 0 0 0 0 -39 0 0 0 0 0 0 0 0 0 0 0 0 0 0 0 0 0 0 0 0 0 -4 0 0 0 0 0 0 0 0 0 0 0 0 0 0 0 0 0 0 0 0 -6 0 0 0 0 0 0 0 0 0 0 0 0 0 0 0 0 0 0 0 0 0 0 -1 0 0 0 0 -4 0 0 0 0 -1 0 -2 0 0 0 0 0 0 0 0 0 0 5 0 0 0 0 0 0 0 0 0 0 0 0 0 0 0 0 0 0 4 0 0 0 0 4 0 0 -2 0 0 0 0 0 0 0 0 0 0 0 0 0 0 0 0 0 0 0 0 0 0 0 0 0 0 0 0 0 0 0 0 0 0 0 0 0 0 0 0 0 0 0 0 0 0 -1 0 0 0 5 0 0 0 0 0 0 0 0 0 0 0 0 0 0 0 0 0 0 0 4 0 0 0 0 0 31 0 0 0 0 0 0 0 0 0 0 0 0 0 0 0 0 0 0 0 0 0 0 0 0 0 0 0 0 0 0 0 0 0 0 0 0 0 0 0 37 0 0 0 -5 0 0 0 0 5 0 0 0 0 0 3 0 0 0 -4 0 -60 0 0 0 0 -20 0 0 0 0 0 0 0 -2 0 -5 0 0 0 12 0 0 5 -3 -3 0 0 2 0 0 0 0 0 0 0 0 0 -2 2 0 5 0 0 0 0 0 0 0 0 0 0 0 0 0 0 1 0 0 2 0 0 -4 0 0 0 0 0 0 0 0 0 0 0 0 -4 -4 2 0 0 0 0 0 0 0 0 0 0 0 0 0 0 0 0 0 0 1 0 0 -5 0 0 0 -5 5 0 0 0 -4 0 0 0 -31 0 0 0 0 0 0 0 0 0 0 4 -4 0 0 0 0 0 -37 5 0 -5 0 0 0 -3 0 0 0 0 4 0 0 0 0 0 0 0 0 0 0 
-94 -62 -31 -1 -18 -15 0 0 -5 -9 -10 -26 0 0 0 -5 -1 -10 0 0 0 -3 0 -7 -20 0 -3 -9 5 -9 0 0 -17 0 0 -43 0 -8 0 -1 0 0 -15 0 0 0 0 -3 -1 -2 0 0 0 -1 0 -1 -6 0 3 0 0 0 0 0 -2 0 0 0 0 0 -6 0 0 0 0 0 6 -5 0 0 0 0 0 0 0 0 0 0 0 0 0 0 0 -3 0 0 0 0 0 0 0 0 0 3 0 -2 0 0 4 0 0 0 0 0 0 0 2 0 0 0 0 0 0 0 0 -2 0 0 0 0 -2 0 0 0 0 0 0 0 11 0 0 0 0 0 0 0 0 0 0 0 0 0 0 -5 0 0 0 0 11 0 -4 0 0 1 0 0 0 0 0 0 0 -5 10 0 0 0 0 0 0 0 0 0 -10 0 0 -1 0 -1 0 0 0 0 0 0 0 0 10 0 -4 0 2 0 0 2 0 -3 0 0 0 0 0 0 -20 0 0 0 0 0 0 0 0 0 0 3 0 0 0 0 0 -2 0 0 0 0 0 20 0 -1 -5 -9 0 0 0 0 -3 0 0 2 0 -20 0 -1 0 0 0 0 0 0 8 0 0 0 0 0 0 0 -2 0 0 0 0 0 0 0 -2 0 0 0 0 0 0 0 0 0 -45 0 0 0 4 0 -6 0 -2 0 0 0 0 0 0 0 0 0 0 0 0 0 0 0 0 0 -4 0 -2 0 0 2 0 0 0 0 0 -1 0 -6 0 0 0 0 0 0 0 0 0 0 0 0 0 0 -1 0 6 0 0 0 0 0 0 -4 0 0 1 -3 -14 0 0 0 0 0 0 0 0 0 0 0 0 0 0 0 0 0 0 0 0 4 0 -2 0 0 7 0 0 0 0 0 0 5 0 -24 0 -45 -2 0 0 0 0 4 0 0 0 0 -5 0 0 -6 0 0 0 0 0 0 0 0 0 0 0 0 0 0 0 0 0 0 0 0 0 0 0 0 0 -1 0 0 -4 0 0 0 2 0 -3 0 0 7 0 0 0 0 0 0 0 0 0 0 0 0 0 0 6 0 0 0 0 1 0 -1 0 0 0 0 0 0 0 0 0 0 0 0 0 0 0 0 24 0 0 0 0 0 -5 0 0 0 0 0 0 0 0 -18 0 0 0 0 -6 1 3 0 0 0 0 0 0 0 0 0 0 -4 0 0 -29 1 0 0 0 0 0 0 0 0 0 0 0 -3 0 0 0 -15 0 0 5 0 0 0 0 -2 -3 -10 -2 0 0 0 0 5 16 0 0 -2 -4 2 0 0 5 2 0 0 0 0 0 -41 43 4 -4 -4 0 0 0 0 0 0 0 0 0 0 0 0 0 -1 3 0 -5 0 0 0 0 0 0 0 0 0 -4 -3 0 -7 0 0 0 0 2 0 0 0 -1 0 5 0 6 0 0 0 0 0 1 4 0 0 -2 0 3 0 -5 -2 0 0 0 0 0 -6 0 -1 0 1 0 0 0 0 0 0 -24 0 0 5 0 0 0 4 0 18 6 -1 -3 0 0 4 -29 0 -1 0 0 0 0 0 0 0 0 0 0 0 0 0 0 0 0 0 
-8 0 -8 0 0 0 -3 0 -4 0 0 -48 0 0 -1 0 0 0 4 0 0 -2 0 0 0 0 0 -30 0 -9 0 0 0 0 0 0 0 0 0 0 -3 1 -15 4 0 0 0 -1 0 0 0 0 2 -1 0 -1 0 0 0 0 0 0 4 0 0 0 0 0 0 0 -3 0 0 0 0 0 3 0 0 0 0 0 0 0 -9 1 0 0 0 -3 0 0 0 -3 0 0 0 0 0 0 0 0 0 2 0 -2 0 0 0 -3 0 0 0 0 0 0 -2 0 0 0 0 0 0 0 0 0 0 0 0 0 0 0 0 0 0 -1 2 0 41 0 -3 0 0 0 0 0 0 0 0 0 0 0 0 -2 0 0 0 0 41 0 0 0 0 0 0 0 0 0 0 0 0 0 10 0 -3 -4 0 0 0 0 0 0 -8 0 0 0 0 0 0 0 0 0 -2 0 30 0 10 0 0 0 0 0 0 0 0 0 0 0 0 0 0 0 0 0 -2 0 0 2 0 0 0 0 0 0 0 0 0 0 0 0 0 0 0 0 0 0 0 0 -3 -1 0 0 0 0 3 0 0 0 0 0 0 0 0 0 0 0 0 0 0 0 0 0 0 0 0 0 0 0 0 0 0 0 0 0 -2 0 0 0 0 0 0 0 0 0 0 0 0 0 -3 0 0 0 0 0 0 0 0 0 0 0 0 0 0 0 0 0 0 0 0 0 -9 0 -2 0 0 0 0 0 0 0 0 0 0 -30 0 0 0 0 0 0 0 0 0 0 0 0 0 0 -1 0 3 0 0 0 0 0 0 0 0 0 1 0 0 0 0 0 0 0 0 0 0 0 0 0 0 0 0 0 0 0 0 0 0 0 0 0 0 0 0 0 0 0 0 0 1 -91 0 0 0 0 0 0 0 0 0 -2 0 0 0 0 0 0 0 -30 0 0 0 0 0 0 0 0 0 0 0 0 0 0 0 0 0 0 0 0 0 0 0 2 2 -1 0 0 0 0 0 0 0 0 3 0 0 -1 0 0 0 0 0 0 0 0 0 0 0 0 0 0 0 0 0 0 0 0 0 0 0 0 0 0 0 0 9 0 0 0 -1 0 0 0 0 0 0 0 0 0 0 0 -5 2 0 0 0 0 -2 0 -1 13 0 0 0 0 -3 1 0 0 0 0 0 0 0 0 0 0 0 0 0 0 2 0 0 0 0 0 0 0 0 0 0 0 -3 0 0 0 -2 -11 0 0 2 0 0 0 4 0 -30 -8 0 0 0 0 0 3 0 0 0 0 0 2 0 0 0 0 0 0 0 0 0 0 2 9 -9 -4 4 0 0 -3 0 0 0 0 0 0 0 0 0 -1 0 0 0 0 0 0 0 0 0 0 0 0 0 0 0 0 0 0 0 0 0 0 0 0 2 0 0 0 30 0 0 0 0 0 1 0 0 0 0 0 -3 0 1 0 0 0 0 0 0 -9 0 0 0 0 0 0 -9 0 0 0 0 0 -3 8 -2 0 2 0 1 -13 3 -1 0 0 0 0 -2 0 0 0 0 0 0 0 0 0 0 0 0 0 0 0 0 0 0 0 
-2 0 -2 0 -2 0 0 0 -5 0 -24 -49 -5 -12 0 0 0 0 0 5 0 0 0 0 -25 -42 0 -12 0 0 0 0 0 0 0 0 0 0 0 0 0 0 -34 0 0 0 0 -3 0 0 0 -37 0 0 0 0 0 0 0 0 0 0 0 0 0 0 0 0 0 0 0 -24 0 0 0 0 -3 0 0 0 0 0 0 0 0 0 0 0 0 0 0 0 -5 3 0 0 5 0 -42 0 0 0 -42 0 0 0 0 0 0 0 17 0 0 0 0 0 0 0 0 0 0 0 0 0 0 0 0 0 0 0 0 0 0 0 -1 0 0 0 1 0 0 0 22 0 0 0 0 0 0 0 5 0 11 0 0 0 0 0 1 0 0 0 0 0 0 0 0 0 0 0 0 0 1 0 0 0 2 0 0 0 0 0 -18 0 0 -5 0 0 0 0 0 0 0 0 0 0 1 0 0 0 0 0 0 0 0 -3 0 0 0 0 0 0 5 0 0 0 0 0 0 0 0 -17 -6 0 0 0 0 0 0 0 0 0 0 0 0 0 0 0 0 0 0 0 0 0 0 0 0 0 0 -33 0 0 0 0 0 0 0 0 0 0 0 0 0 0 0 0 0 5 0 0 0 0 0 0 -48 0 0 0 0 0 0 0 0 0 0 0 0 -38 0 0 1 0 0 0 0 0 0 0 0 0 -17 0 0 0 0 0 0 0 -1 0 0 0 0 0 5 0 0 0 0 0 0 1 0 0 0 0 0 0 0 0 0 0 0 0 0 0 0 0 1 0 0 -37 0 0 0 0 0 0 0 0 0 0 0 0 0 0 0 0 0 0 0 0 0 0 0 0 0 0 0 0 0 0 0 0 0 0 0 5 -5 0 0 14 0 0 0 0 0 0 0 0 0 -1 -38 0 0 0 0 0 0 0 0 0 0 0 0 0 0 0 0 0 0 0 0 0 0 0 0 0 0 0 0 0 0 0 0 0 0 0 0 0 0 -97 0 0 0 0 0 0 0 0 0 0 0 0 0 0 0 0 0 0 0 5 0 0 0 0 -6 0 0 0 0 5 0 0 0 0 0 30 0 0 -3 0 0 0 0 0 0 0 0 0 0 0 0 0 0 0 0 0 0 0 0 0 0 0 0 0 0 0 0 0 0 -1 0 0 0 0 0 50 0 0 0 0 0 0 0 0 -2 0 0 0 0 0 0 0 0 0 0 0 -58 0 0 -13 0 -40 0 0 0 0 0 0 0 -2 0 -1 0 0 0 0 0 0 0 0 0 0 0 -2 0 0 0 0 17 0 0 1 0 0 0 0 0 0 0 0 0 0 0 0 0 0 0 0 0 0 0 0 0 0 0 0 0 0 0 0 0 0 0 0 0 0 -5 5 0 -14 0 0 0 1 -33 0 0 0 0 0 0 0 0 0 0 0 0 0 0 0 0 0 0 0 0 0 0 0 -5 0 0 9 0 -5 0 0 0 -30 3 0 0 0 0 0 0 0 0 0 -5 5 0 0 0 1 0 -50 0 0 2 0 0 0 0 0 0 0 0 0 0 0 0 0 0 0 0 0 0 0 
#OUTPUT END
Model has been successfully processed
